p cnf 175 2521
1 2 3 4 5 0
6 7 8 9 10 0
11 12 13 14 15 0
16 17 18 19 20 0
21 22 23 24 25 0
26 27 28 29 30 0
31 32 33 34 35 0
36 37 38 39 40 0
41 42 43 44 45 0
46 47 48 49 50 0
51 52 53 54 55 0
56 57 58 59 60 0
61 62 63 64 65 0
66 67 68 69 70 0
71 72 73 74 75 0
76 77 78 79 80 0
81 82 83 84 85 0
86 87 88 89 90 0
91 92 93 94 95 0
96 97 98 99 100 0
101 102 103 104 105 0
106 107 108 109 110 0
111 112 113 114 115 0
116 117 118 119 120 0
121 122 123 124 125 0
126 127 128 129 130 0
131 132 133 134 135 0
136 137 138 139 140 0
141 142 143 144 145 0
146 147 148 149 150 0
151 152 153 154 155 0
156 157 158 159 160 0
161 162 163 164 165 0
166 167 168 169 170 0
171 172 173 174 175 0
-1 -2 0
-1 -3 0
-1 -4 0
-1 -5 0
-2 -3 0
-2 -4 0
-2 -5 0
-3 -4 0
-3 -5 0
-4 -5 0
-6 -7 0
-6 -8 0
-6 -9 0
-6 -10 0
-7 -8 0
-7 -9 0
-7 -10 0
-8 -9 0
-8 -10 0
-9 -10 0
-11 -12 0
-11 -13 0
-11 -14 0
-11 -15 0
-12 -13 0
-12 -14 0
-12 -15 0
-13 -14 0
-13 -15 0
-14 -15 0
-16 -17 0
-16 -18 0
-16 -19 0
-16 -20 0
-17 -18 0
-17 -19 0
-17 -20 0
-18 -19 0
-18 -20 0
-19 -20 0
-21 -22 0
-21 -23 0
-21 -24 0
-21 -25 0
-22 -23 0
-22 -24 0
-22 -25 0
-23 -24 0
-23 -25 0
-24 -25 0
-26 -27 0
-26 -28 0
-26 -29 0
-26 -30 0
-27 -28 0
-27 -29 0
-27 -30 0
-28 -29 0
-28 -30 0
-29 -30 0
-31 -32 0
-31 -33 0
-31 -34 0
-31 -35 0
-32 -33 0
-32 -34 0
-32 -35 0
-33 -34 0
-33 -35 0
-34 -35 0
-36 -37 0
-36 -38 0
-36 -39 0
-36 -40 0
-37 -38 0
-37 -39 0
-37 -40 0
-38 -39 0
-38 -40 0
-39 -40 0
-41 -42 0
-41 -43 0
-41 -44 0
-41 -45 0
-42 -43 0
-42 -44 0
-42 -45 0
-43 -44 0
-43 -45 0
-44 -45 0
-46 -47 0
-46 -48 0
-46 -49 0
-46 -50 0
-47 -48 0
-47 -49 0
-47 -50 0
-48 -49 0
-48 -50 0
-49 -50 0
-51 -52 0
-51 -53 0
-51 -54 0
-51 -55 0
-52 -53 0
-52 -54 0
-52 -55 0
-53 -54 0
-53 -55 0
-54 -55 0
-56 -57 0
-56 -58 0
-56 -59 0
-56 -60 0
-57 -58 0
-57 -59 0
-57 -60 0
-58 -59 0
-58 -60 0
-59 -60 0
-61 -62 0
-61 -63 0
-61 -64 0
-61 -65 0
-62 -63 0
-62 -64 0
-62 -65 0
-63 -64 0
-63 -65 0
-64 -65 0
-66 -67 0
-66 -68 0
-66 -69 0
-66 -70 0
-67 -68 0
-67 -69 0
-67 -70 0
-68 -69 0
-68 -70 0
-69 -70 0
-71 -72 0
-71 -73 0
-71 -74 0
-71 -75 0
-72 -73 0
-72 -74 0
-72 -75 0
-73 -74 0
-73 -75 0
-74 -75 0
-76 -77 0
-76 -78 0
-76 -79 0
-76 -80 0
-77 -78 0
-77 -79 0
-77 -80 0
-78 -79 0
-78 -80 0
-79 -80 0
-81 -82 0
-81 -83 0
-81 -84 0
-81 -85 0
-82 -83 0
-82 -84 0
-82 -85 0
-83 -84 0
-83 -85 0
-84 -85 0
-86 -87 0
-86 -88 0
-86 -89 0
-86 -90 0
-87 -88 0
-87 -89 0
-87 -90 0
-88 -89 0
-88 -90 0
-89 -90 0
-91 -92 0
-91 -93 0
-91 -94 0
-91 -95 0
-92 -93 0
-92 -94 0
-92 -95 0
-93 -94 0
-93 -95 0
-94 -95 0
-96 -97 0
-96 -98 0
-96 -99 0
-96 -100 0
-97 -98 0
-97 -99 0
-97 -100 0
-98 -99 0
-98 -100 0
-99 -100 0
-101 -102 0
-101 -103 0
-101 -104 0
-101 -105 0
-102 -103 0
-102 -104 0
-102 -105 0
-103 -104 0
-103 -105 0
-104 -105 0
-106 -107 0
-106 -108 0
-106 -109 0
-106 -110 0
-107 -108 0
-107 -109 0
-107 -110 0
-108 -109 0
-108 -110 0
-109 -110 0
-111 -112 0
-111 -113 0
-111 -114 0
-111 -115 0
-112 -113 0
-112 -114 0
-112 -115 0
-113 -114 0
-113 -115 0
-114 -115 0
-116 -117 0
-116 -118 0
-116 -119 0
-116 -120 0
-117 -118 0
-117 -119 0
-117 -120 0
-118 -119 0
-118 -120 0
-119 -120 0
-121 -122 0
-121 -123 0
-121 -124 0
-121 -125 0
-122 -123 0
-122 -124 0
-122 -125 0
-123 -124 0
-123 -125 0
-124 -125 0
-126 -127 0
-126 -128 0
-126 -129 0
-126 -130 0
-127 -128 0
-127 -129 0
-127 -130 0
-128 -129 0
-128 -130 0
-129 -130 0
-131 -132 0
-131 -133 0
-131 -134 0
-131 -135 0
-132 -133 0
-132 -134 0
-132 -135 0
-133 -134 0
-133 -135 0
-134 -135 0
-136 -137 0
-136 -138 0
-136 -139 0
-136 -140 0
-137 -138 0
-137 -139 0
-137 -140 0
-138 -139 0
-138 -140 0
-139 -140 0
-141 -142 0
-141 -143 0
-141 -144 0
-141 -145 0
-142 -143 0
-142 -144 0
-142 -145 0
-143 -144 0
-143 -145 0
-144 -145 0
-146 -147 0
-146 -148 0
-146 -149 0
-146 -150 0
-147 -148 0
-147 -149 0
-147 -150 0
-148 -149 0
-148 -150 0
-149 -150 0
-151 -152 0
-151 -153 0
-151 -154 0
-151 -155 0
-152 -153 0
-152 -154 0
-152 -155 0
-153 -154 0
-153 -155 0
-154 -155 0
-156 -157 0
-156 -158 0
-156 -159 0
-156 -160 0
-157 -158 0
-157 -159 0
-157 -160 0
-158 -159 0
-158 -160 0
-159 -160 0
-161 -162 0
-161 -163 0
-161 -164 0
-161 -165 0
-162 -163 0
-162 -164 0
-162 -165 0
-163 -164 0
-163 -165 0
-164 -165 0
-166 -167 0
-166 -168 0
-166 -169 0
-166 -170 0
-167 -168 0
-167 -169 0
-167 -170 0
-168 -169 0
-168 -170 0
-169 -170 0
-171 -172 0
-171 -173 0
-171 -174 0
-171 -175 0
-172 -173 0
-172 -174 0
-172 -175 0
-173 -174 0
-173 -175 0
-174 -175 0
-5 -6 0
-3 -8 0
-4 -9 0
-2 -10 0
-3 -10 0
-2 -7 0
-1 -6 0
-2 -6 0
-3 -7 0
-4 -6 0
-5 -7 0
-3 -9 0
-1 -22 0
-5 -21 0
-3 -21 0
-1 -25 0
-1 -24 0
-5 -22 0
-1 -23 0
-5 -23 0
-5 -24 0
-2 -23 0
-2 -22 0
-4 -21 0
-4 -34 0
-3 -32 0
-5 -35 0
-5 -31 0
-4 -35 0
-4 -32 0
-1 -34 0
-4 -31 0
-2 -33 0
-3 -33 0
-1 -31 0
-2 -34 0
-5 -39 0
-4 -39 0
-4 -40 0
-2 -36 0
-2 -37 0
-4 -38 0
-1 -36 0
-5 -37 0
-2 -39 0
-4 -36 0
-1 -38 0
-2 -40 0
-4 -44 0
-5 -45 0
-1 -41 0
-5 -44 0
-5 -41 0
-4 -41 0
-3 -41 0
-2 -45 0
-4 -42 0
-2 -42 0
-1 -45 0
-5 -43 0
-2 -49 0
-2 -48 0
-2 -47 0
-5 -48 0
-5 -47 0
-2 -50 0
-5 -49 0
-1 -49 0
-3 -47 0
-5 -50 0
-1 -46 0
-4 -48 0
-2 -55 0
-1 -51 0
-2 -53 0
-3 -54 0
-2 -52 0
-1 -55 0
-5 -53 0
-4 -53 0
-5 -55 0
-2 -51 0
-4 -51 0
-1 -52 0
-4 -63 0
-2 -64 0
-2 -65 0
-2 -61 0
-3 -63 0
-5 -62 0
-5 -63 0
-1 -62 0
-1 -64 0
-2 -62 0
-1 -63 0
-2 -63 0
-2 -86 0
-3 -90 0
-4 -86 0
-1 -87 0
-1 -89 0
-3 -87 0
-4 -88 0
-4 -89 0
-5 -87 0
-5 -88 0
-2 -88 0
-1 -88 0
-2 -141 0
-3 -143 0
-3 -144 0
-5 -142 0
-2 -142 0
-5 -145 0
-2 -144 0
-1 -145 0
-5 -143 0
-4 -142 0
-4 -143 0
-3 -145 0
-10 -12 0
-8 -15 0
-9 -14 0
-6 -15 0
-10 -11 0
-7 -13 0
-10 -13 0
-8 -13 0
-7 -15 0
-10 -15 0
-8 -12 0
-6 -11 0
-10 -59 0
-9 -59 0
-10 -60 0
-6 -56 0
-6 -59 0
-6 -58 0
-10 -57 0
-7 -60 0
-7 -58 0
-10 -58 0
-8 -58 0
-7 -59 0
-7 -75 0
-6 -75 0
-8 -72 0
-10 -75 0
-9 -75 0
-9 -72 0
-10 -74 0
-7 -72 0
-8 -71 0
-7 -74 0
-10 -71 0
-6 -74 0
-6 -87 0
-9 -88 0
-10 -89 0
-8 -87 0
-10 -86 0
-6 -88 0
-9 -87 0
-8 -88 0
-10 -90 0
-10 -88 0
-9 -86 0
-6 -90 0
-10 -105 0
-9 -105 0
-7 -103 0
-9 -104 0
-7 -104 0
-10 -103 0
-8 -102 0
-10 -102 0
-6 -105 0
-6 -103 0
-10 -104 0
-8 -105 0
-9 -116 0
-8 -118 0
-6 -116 0
-9 -120 0
-6 -118 0
-10 -118 0
-7 -116 0
-6 -119 0
-10 -117 0
-10 -116 0
-8 -119 0
-9 -118 0
-9 -122 0
-10 -122 0
-10 -121 0
-10 -125 0
-7 -122 0
-6 -122 0
-10 -123 0
-8 -122 0
-7 -124 0
-8 -125 0
-8 -123 0
-6 -124 0
-6 -135 0
-7 -132 0
-8 -132 0
-6 -132 0
-10 -134 0
-10 -132 0
-10 -131 0
-8 -135 0
-10 -135 0
-8 -134 0
-6 -131 0
-6 -134 0
-15 -30 0
-11 -26 0
-12 -28 0
-14 -26 0
-13 -30 0
-12 -30 0
-15 -29 0
-14 -30 0
-15 -26 0
-11 -29 0
-12 -27 0
-13 -28 0
-14 -57 0
-15 -58 0
-13 -59 0
-12 -58 0
-14 -59 0
-13 -58 0
-11 -56 0
-14 -58 0
-12 -57 0
-11 -58 0
-14 -60 0
-15 -59 0
-14 -72 0
-15 -72 0
-11 -71 0
-15 -73 0
-13 -72 0
-14 -75 0
-11 -74 0
-12 -71 0
-15 -74 0
-12 -74 0
-11 -75 0
-13 -73 0
-15 -86 0
-14 -90 0
-15 -90 0
-14 -87 0
-13 -90 0
-15 -89 0
-13 -87 0
-14 -86 0
-14 -89 0
-13 -89 0
-11 -86 0
-12 -88 0
-14 -95 0
-15 -93 0
-13 -94 0
-12 -94 0
-13 -92 0
-15 -92 0
-12 -92 0
-12 -95 0
-11 -93 0
-11 -92 0
-13 -93 0
-14 -92 0
-15 -138 0
-11 -140 0
-12 -138 0
-15 -140 0
-11 -138 0
-14 -139 0
-14 -136 0
-14 -138 0
-12 -139 0
-15 -137 0
-12 -136 0
-13 -137 0
-15 -159 0
-14 -160 0
-14 -158 0
-11 -158 0
-11 -156 0
-15 -157 0
-15 -158 0
-13 -156 0
-12 -159 0
-12 -156 0
-12 -158 0
-13 -159 0
-16 -26 0
-16 -28 0
-20 -28 0
-20 -30 0
-16 -27 0
-17 -28 0
-18 -27 0
-18 -30 0
-20 -29 0
-19 -27 0
-17 -29 0
-18 -26 0
-20 -31 0
-16 -33 0
-16 -35 0
-19 -35 0
-19 -31 0
-18 -34 0
-20 -35 0
-20 -33 0
-18 -33 0
-18 -32 0
-18 -31 0
-17 -35 0
-17 -36 0
-20 -40 0
-18 -38 0
-19 -36 0
-17 -37 0
-18 -40 0
-16 -40 0
-16 -37 0
-19 -40 0
-20 -37 0
-20 -38 0
-18 -39 0
-19 -49 0
-20 -46 0
-16 -49 0
-17 -50 0
-19 -46 0
-18 -46 0
-17 -46 0
-19 -47 0
-20 -47 0
-17 -49 0
-20 -49 0
-18 -50 0
-18 -52 0
-16 -54 0
-19 -51 0
-16 -51 0
-20 -54 0
-16 -53 0
-17 -51 0
-20 -51 0
-19 -53 0
-18 -55 0
-18 -51 0
-17 -55 0
-17 -60 0
-17 -56 0
-20 -60 0
-16 -59 0
-17 -58 0
-20 -59 0
-20 -58 0
-16 -60 0
-17 -57 0
-18 -59 0
-19 -59 0
-18 -56 0
-17 -64 0
-20 -61 0
-16 -64 0
-18 -63 0
-18 -61 0
-16 -65 0
-17 -63 0
-20 -63 0
-20 -62 0
-20 -65 0
-16 -62 0
-20 -64 0
-19 -94 0
-19 -91 0
-17 -93 0
-16 -94 0
-20 -94 0
-20 -91 0
-17 -95 0
-18 -94 0
-18 -95 0
-17 -94 0
-20 -95 0
-19 -92 0
-18 -96 0
-17 -96 0
-16 -98 0
-19 -96 0
-20 -98 0
-18 -100 0
-20 -97 0
-16 -96 0
-18 -97 0
-19 -98 0
-17 -98 0
-19 -99 0
-19 -113 0
-20 -113 0
-17 -113 0
-16 -113 0
-18 -111 0
-17 -112 0
-16 -114 0
-17 -114 0
-20 -112 0
-16 -111 0
-17 -111 0
-17 -115 0
-19 -134 0
-16 -133 0
-19 -135 0
-16 -131 0
-18 -135 0
-20 -135 0
-17 -134 0
-19 -131 0
-18 -133 0
-18 -132 0
-17 -132 0
-16 -134 0
-19 -140 0
-17 -140 0
-16 -140 0
-18 -137 0
-19 -138 0
-16 -138 0
-20 -139 0
-19 -136 0
-17 -136 0
-20 -140 0
-17 -138 0
-20 -137 0
-24 -38 0
-24 -39 0
-21 -36 0
-23 -40 0
-21 -38 0
-22 -40 0
-24 -40 0
-21 -37 0
-22 -38 0
-25 -38 0
-23 -39 0
-25 -39 0
-23 -49 0
-22 -48 0
-21 -47 0
-25 -46 0
-23 -50 0
-22 -46 0
-21 -49 0
-22 -47 0
-21 -46 0
-24 -48 0
-22 -50 0
-25 -49 0
-23 -72 0
-25 -75 0
-24 -71 0
-22 -71 0
-24 -72 0
-21 -72 0
-21 -74 0
-23 -75 0
-23 -74 0
-24 -73 0
-21 -71 0
-24 -75 0
-23 -93 0
-22 -91 0
-23 -91 0
-25 -95 0
-24 -95 0
-25 -91 0
-24 -92 0
-23 -94 0
-25 -94 0
-24 -94 0
-22 -92 0
-21 -94 0
-21 -115 0
-22 -111 0
-24 -114 0
-25 -113 0
-21 -113 0
-21 -111 0
-22 -113 0
-23 -114 0
-25 -112 0
-22 -114 0
-21 -112 0
-24 -111 0
-25 -134 0
-23 -133 0
-23 -135 0
-22 -132 0
-21 -131 0
-21 -135 0
-22 -135 0
-21 -132 0
-24 -133 0
-25 -135 0
-22 -134 0
-25 -132 0
-25 -139 0
-24 -136 0
-24 -138 0
-25 -136 0
-25 -138 0
-22 -139 0
-21 -136 0
-22 -136 0
-25 -137 0
-21 -137 0
-23 -139 0
-24 -140 0
-24 -159 0
-23 -158 0
-25 -159 0
-23 -160 0
-25 -157 0
-23 -156 0
-22 -160 0
-24 -157 0
-24 -158 0
-22 -156 0
-23 -157 0
-21 -156 0
-30 -42 0
-27 -43 0
-27 -41 0
-26 -43 0
-28 -43 0
-27 -45 0
-26 -44 0
-29 -43 0
-29 -45 0
-29 -42 0
-30 -41 0
-30 -45 0
-27 -69 0
-28 -66 0
-29 -67 0
-28 -69 0
-26 -68 0
-26 -69 0
-30 -66 0
-28 -70 0
-26 -66 0
-30 -70 0
-26 -67 0
-27 -70 0
-26 -89 0
-30 -88 0
-26 -88 0
-27 -89 0
-28 -87 0
-26 -86 0
-26 -90 0
-27 -88 0
-28 -88 0
-27 -87 0
-29 -88 0
-27 -86 0
-28 -116 0
-30 -119 0
-30 -118 0
-29 -119 0
-28 -119 0
-28 -117 0
-26 -118 0
-30 -116 0
-27 -120 0
-28 -120 0
-30 -120 0
-26 -120 0
-28 -127 0
-26 -126 0
-26 -127 0
-28 -130 0
-27 -128 0
-29 -126 0
-28 -126 0
-26 -130 0
-30 -129 0
-29 -129 0
-27 -129 0
-29 -128 0
-26 -134 0
-29 -132 0
-28 -131 0
-29 -133 0
-27 -131 0
-26 -135 0
-27 -132 0
-26 -131 0
-30 -131 0
-27 -135 0
-29 -134 0
-28 -133 0
-29 -159 0
-26 -158 0
-27 -159 0
-29 -156 0
-29 -160 0
-28 -160 0
-30 -159 0
-27 -157 0
-30 -160 0
-30 -158 0
-30 -156 0
-27 -156 0
-31 -52 0
-35 -53 0
-34 -55 0
-35 -55 0
-32 -52 0
-33 -55 0
-32 -51 0
-35 -51 0
-33 -53 0
-34 -54 0
-35 -54 0
-34 -52 0
-31 -72 0
-32 -74 0
-34 -74 0
-35 -73 0
-31 -73 0
-32 -75 0
-34 -75 0
-34 -73 0
-31 -71 0
-33 -73 0
-35 -74 0
-34 -71 0
-34 -80 0
-33 -79 0
-33 -80 0
-31 -79 0
-35 -77 0
-33 -77 0
-31 -77 0
-35 -78 0
-34 -76 0
-32 -79 0
-31 -76 0
-35 -79 0
-34 -126 0
-34 -129 0
-31 -128 0
-31 -127 0
-33 -128 0
-33 -129 0
-32 -128 0
-35 -128 0
-33 -130 0
-34 -128 0
-32 -126 0
-34 -127 0
-31 -146 0
-31 -150 0
-34 -146 0
-34 -150 0
-35 -149 0
-34 -148 0
-35 -147 0
-35 -148 0
-33 -149 0
-32 -149 0
-32 -146 0
-34 -147 0
-32 -170 0
-31 -167 0
-35 -169 0
-32 -169 0
-35 -170 0
-34 -170 0
-32 -166 0
-34 -166 0
-35 -167 0
-33 -170 0
-34 -167 0
-32 -167 0
-37 -63 0
-36 -61 0
-39 -61 0
-39 -63 0
-38 -64 0
-40 -65 0
-39 -62 0
-40 -62 0
-36 -62 0
-37 -65 0
-38 -61 0
-40 -61 0
-40 -67 0
-38 -69 0
-40 -69 0
-40 -66 0
-36 -68 0
-37 -68 0
-38 -68 0
-40 -70 0
-38 -70 0
-37 -66 0
-36 -70 0
-38 -67 0
-38 -78 0
-38 -80 0
-40 -80 0
-36 -80 0
-39 -80 0
-37 -76 0
-36 -79 0
-37 -77 0
-40 -78 0
-40 -77 0
-39 -76 0
-37 -80 0
-40 -86 0
-40 -90 0
-38 -89 0
-39 -88 0
-37 -89 0
-37 -90 0
-40 -87 0
-38 -88 0
-36 -90 0
-39 -90 0
-36 -87 0
-37 -87 0
-39 -114 0
-37 -115 0
-36 -112 0
-40 -115 0
-36 -115 0
-38 -112 0
-39 -115 0
-38 -114 0
-39 -113 0
-40 -113 0
-38 -111 0
-37 -113 0
-40 -119 0
-39 -118 0
-36 -118 0
-37 -116 0
-38 -117 0
-40 -116 0
-38 -118 0
-36 -116 0
-39 -117 0
-37 -119 0
-40 -118 0
-38 -119 0
-36 -123 0
-37 -123 0
-36 -125 0
-39 -123 0
-39 -124 0
-38 -123 0
-37 -122 0
-37 -124 0
-37 -125 0
-39 -125 0
-39 -121 0
-39 -122 0
-39 -133 0
-40 -133 0
-40 -135 0
-38 -132 0
-37 -135 0
-37 -131 0
-37 -134 0
-39 -131 0
-39 -132 0
-40 -132 0
-36 -131 0
-38 -134 0
-39 -139 0
-38 -136 0
-37 -139 0
-36 -138 0
-38 -140 0
-37 -137 0
-39 -138 0
-36 -140 0
-38 -139 0
-39 -140 0
-38 -137 0
-36 -137 0
-43 -46 0
-41 -46 0
-43 -47 0
-44 -50 0
-45 -46 0
-42 -47 0
-42 -50 0
-45 -48 0
-44 -48 0
-44 -49 0
-41 -48 0
-41 -50 0
-44 -55 0
-44 -53 0
-41 -51 0
-41 -52 0
-42 -55 0
-42 -54 0
-45 -52 0
-42 -51 0
-41 -53 0
-42 -53 0
-41 -55 0
-41 -54 0
-44 -73 0
-45 -71 0
-44 -75 0
-45 -74 0
-45 -73 0
-41 -74 0
-42 -74 0
-41 -71 0
-41 -75 0
-42 -75 0
-43 -73 0
-42 -72 0
-45 -101 0
-41 -102 0
-43 -101 0
-44 -103 0
-41 -104 0
-43 -105 0
-41 -101 0
-44 -104 0
-41 -105 0
-42 -104 0
-43 -103 0
-43 -102 0
-41 -110 0
-43 -109 0
-45 -110 0
-43 -110 0
-43 -106 0
-44 -109 0
-44 -107 0
-42 -106 0
-45 -108 0
-41 -109 0
-42 -108 0
-41 -108 0
-43 -135 0
-43 -134 0
-43 -133 0
-41 -134 0
-42 -133 0
-44 -135 0
-43 -131 0
-44 -134 0
-45 -135 0
-45 -132 0
-43 -132 0
-42 -131 0
-48 -60 0
-46 -59 0
-46 -58 0
-46 -56 0
-46 -60 0
-50 -56 0
-50 -57 0
-47 -56 0
-48 -59 0
-50 -59 0
-49 -56 0
-49 -59 0
-46 -64 0
-46 -62 0
-48 -65 0
-47 -63 0
-50 -61 0
-47 -65 0
-46 -61 0
-50 -64 0
-47 -64 0
-50 -65 0
-47 -61 0
-49 -62 0
-49 -68 0
-49 -66 0
-48 -70 0
-47 -70 0
-46 -67 0
-47 -66 0
-47 -67 0
-50 -66 0
-46 -69 0
-48 -68 0
-50 -67 0
-50 -68 0
-50 -83 0
-46 -85 0
-47 -82 0
-48 -83 0
-48 -85 0
-47 -81 0
-50 -82 0
-49 -84 0
-49 -85 0
-49 -82 0
-47 -85 0
-50 -85 0
-46 -94 0
-48 -93 0
-46 -95 0
-47 -93 0
-46 -91 0
-46 -93 0
-47 -91 0
-50 -95 0
-48 -95 0
-50 -92 0
-48 -92 0
-46 -92 0
-49 -105 0
-48 -103 0
-48 -101 0
-50 -103 0
-46 -102 0
-47 -103 0
-49 -101 0
-49 -104 0
-46 -105 0
-46 -103 0
-47 -105 0
-47 -102 0
-49 -117 0
-46 -120 0
-47 -120 0
-49 -116 0
-47 -117 0
-47 -119 0
-48 -118 0
-50 -117 0
-47 -116 0
-46 -119 0
-48 -116 0
-47 -118 0
-47 -151 0
-46 -155 0
-48 -154 0
-46 -154 0
-47 -152 0
-50 -151 0
-47 -154 0
-46 -151 0
-49 -152 0
-50 -153 0
-49 -154 0
-48 -153 0
-51 -58 0
-51 -57 0
-54 -58 0
-51 -60 0
-53 -58 0
-53 -57 0
-54 -56 0
-55 -60 0
-54 -57 0
-52 -58 0
-53 -56 0
-53 -59 0
-52 -63 0
-54 -64 0
-53 -65 0
-54 -62 0
-51 -65 0
-52 -62 0
-54 -65 0
-53 -64 0
-53 -62 0
-52 -64 0
-53 -61 0
-51 -62 0
-52 -75 0
-51 -74 0
-55 -72 0
-51 -71 0
-55 -73 0
-51 -72 0
-54 -71 0
-52 -73 0
-54 -72 0
-54 -74 0
-53 -71 0
-54 -73 0
-52 -105 0
-53 -103 0
-53 -102 0
-53 -105 0
-54 -102 0
-53 -101 0
-55 -104 0
-51 -105 0
-55 -102 0
-53 -104 0
-52 -101 0
-54 -105 0
-55 -108 0
-51 -110 0
-51 -108 0
-55 -107 0
-54 -110 0
-53 -107 0
-55 -110 0
-52 -108 0
-51 -109 0
-53 -109 0
-52 -106 0
-53 -106 0
-52 -124 0
-52 -123 0
-55 -123 0
-51 -124 0
-55 -124 0
-53 -125 0
-53 -121 0
-51 -123 0
-55 -122 0
-53 -124 0
-53 -123 0
-52 -121 0
-51 -134 0
-55 -135 0
-52 -131 0
-54 -134 0
-55 -134 0
-53 -135 0
-52 -132 0
-53 -132 0
-51 -135 0
-53 -134 0
-51 -132 0
-55 -133 0
-51 -136 0
-55 -136 0
-54 -140 0
-53 -140 0
-54 -139 0
-55 -140 0
-55 -138 0
-52 -137 0
-54 -137 0
-53 -139 0
-51 -137 0
-53 -136 0
-54 -154 0
-53 -154 0
-55 -152 0
-53 -152 0
-52 -155 0
-54 -151 0
-53 -153 0
-52 -151 0
-51 -153 0
-55 -151 0
-52 -154 0
-55 -155 0
-51 -162 0
-54 -163 0
-52 -163 0
-51 -163 0
-51 -161 0
-55 -163 0
-54 -161 0
-54 -164 0
-51 -164 0
-55 -165 0
-53 -163 0
-51 -165 0
-55 -170 0
-51 -166 0
-52 -169 0
-53 -167 0
-52 -170 0
-55 -166 0
-54 -166 0
-51 -170 0
-52 -168 0
-55 -168 0
-54 -169 0
-51 -168 0
-57 -72 0
-58 -71 0
-58 -75 0
-56 -73 0
-60 -75 0
-56 -75 0
-60 -73 0
-59 -73 0
-57 -73 0
-59 -71 0
-57 -75 0
-58 -74 0
-59 -95 0
-57 -95 0
-57 -91 0
-57 -94 0
-56 -93 0
-59 -91 0
-60 -93 0
-58 -93 0
-56 -95 0
-60 -92 0
-56 -94 0
-60 -94 0
-56 -109 0
-59 -109 0
-60 -109 0
-60 -108 0
-60 -106 0
-60 -110 0
-58 -108 0
-59 -108 0
-56 -106 0
-59 -106 0
-57 -110 0
-57 -109 0
-60 -116 0
-59 -116 0
-57 -119 0
-58 -117 0
-59 -120 0
-58 -118 0
-60 -119 0
-60 -117 0
-58 -116 0
-56 -116 0
-58 -120 0
-57 -116 0
-60 -133 0
-58 -134 0
-56 -134 0
-57 -135 0
-60 -132 0
-60 -131 0
-58 -135 0
-58 -131 0
-56 -135 0
-56 -132 0
-60 -135 0
-59 -134 0
-58 -150 0
-58 -146 0
-59 -149 0
-60 -150 0
-57 -150 0
-56 -150 0
-57 -149 0
-56 -149 0
-56 -148 0
-56 -146 0
-59 -150 0
-59 -146 0
-59 -158 0
-59 -160 0
-57 -158 0
-59 -159 0
-59 -156 0
-56 -157 0
-58 -156 0
-57 -156 0
-60 -160 0
-56 -160 0
-60 -156 0
-56 -159 0
-56 -161 0
-59 -162 0
-59 -161 0
-57 -165 0
-59 -165 0
-58 -161 0
-60 -165 0
-58 -163 0
-57 -164 0
-56 -164 0
-59 -163 0
-56 -165 0
-61 -70 0
-65 -68 0
-64 -68 0
-61 -67 0
-64 -70 0
-62 -70 0
-62 -68 0
-63 -70 0
-64 -67 0
-65 -69 0
-61 -66 0
-63 -67 0
-63 -78 0
-62 -78 0
-62 -76 0
-65 -80 0
-65 -79 0
-61 -77 0
-65 -76 0
-65 -78 0
-64 -78 0
-62 -80 0
-64 -79 0
-63 -76 0
-63 -89 0
-63 -87 0
-61 -90 0
-61 -86 0
-64 -88 0
-65 -87 0
-64 -86 0
-61 -87 0
-63 -86 0
-62 -86 0
-61 -88 0
-65 -88 0
-61 -95 0
-65 -95 0
-65 -91 0
-63 -93 0
-62 -93 0
-63 -92 0
-65 -92 0
-63 -91 0
-61 -91 0
-64 -93 0
-62 -95 0
-64 -95 0
-65 -96 0
-64 -96 0
-65 -97 0
-64 -97 0
-63 -97 0
-64 -100 0
-61 -100 0
-65 -100 0
-62 -97 0
-63 -98 0
-62 -100 0
-65 -99 0
-65 -116 0
-61 -119 0
-61 -116 0
-62 -116 0
-64 -120 0
-63 -116 0
-62 -117 0
-63 -119 0
-61 -120 0
-61 -117 0
-65 -119 0
-62 -120 0
-63 -134 0
-63 -132 0
-65 -134 0
-61 -135 0
-65 -135 0
-64 -135 0
-64 -134 0
-61 -131 0
-61 -133 0
-63 -131 0
-64 -133 0
-63 -133 0
-69 -72 0
-70 -71 0
-68 -71 0
-67 -71 0
-66 -74 0
-66 -72 0
-68 -72 0
-68 -75 0
-69 -75 0
-70 -75 0
-67 -72 0
-68 -74 0
-67 -106 0
-67 -107 0
-68 -106 0
-66 -106 0
-70 -106 0
-69 -109 0
-68 -110 0
-68 -108 0
-66 -109 0
-67 -110 0
-69 -107 0
-67 -109 0
-70 -118 0
-66 -120 0
-66 -116 0
-68 -117 0
-69 -116 0
-67 -120 0
-67 -119 0
-66 -119 0
-69 -118 0
-68 -118 0
-70 -120 0
-68 -116 0
-67 -127 0
-70 -128 0
-69 -127 0
-69 -129 0
-67 -129 0
-67 -128 0
-70 -126 0
-70 -127 0
-66 -128 0
-69 -128 0
-66 -127 0
-68 -126 0
-69 -173 0
-67 -172 0
-68 -175 0
-66 -172 0
-66 -171 0
-70 -171 0
-67 -173 0
-66 -173 0
-66 -175 0
-68 -173 0
-69 -172 0
-67 -171 0
-73 -89 0
-72 -88 0
-71 -89 0
-75 -89 0
-71 -87 0
-71 -90 0
-71 -88 0
-75 -86 0
-75 -90 0
-74 -88 0
-74 -90 0
-73 -86 0
-75 -115 0
-75 -112 0
-73 -114 0
-73 -112 0
-72 -111 0
-71 -113 0
-72 -114 0
-73 -113 0
-75 -114 0
-71 -111 0
-71 -115 0
-72 -112 0
-74 -122 0
-74 -125 0
-71 -124 0
-71 -122 0
-72 -122 0
-74 -123 0
-74 -124 0
-75 -121 0
-73 -125 0
-71 -121 0
-72 -121 0
-72 -125 0
-74 -174 0
-75 -171 0
-72 -172 0
-74 -171 0
-75 -174 0
-71 -175 0
-74 -175 0
-75 -173 0
-71 -173 0
-72 -171 0
-72 -173 0
-72 -175 0
-76 -106 0
-80 -110 0
-80 -108 0
-78 -107 0
-78 -106 0
-76 -107 0
-79 -108 0
-78 -108 0
-79 -107 0
-78 -110 0
-79 -106 0
-80 -107 0
-77 -112 0
-78 -112 0
-79 -115 0
-78 -114 0
-77 -113 0
-76 -114 0
-76 -111 0
-80 -113 0
-77 -114 0
-79 -113 0
-77 -111 0
-76 -112 0
-78 -160 0
-76 -157 0
-77 -159 0
-78 -158 0
-76 -156 0
-80 -156 0
-76 -159 0
-78 -156 0
-77 -157 0
-77 -160 0
-80 -159 0
-79 -159 0
-84 -91 0
-83 -94 0
-84 -92 0
-83 -91 0
-85 -91 0
-82 -91 0
-84 -93 0
-82 -92 0
-83 -93 0
-85 -95 0
-85 -93 0
-85 -92 0
-84 -105 0
-81 -101 0
-83 -101 0
-85 -104 0
-85 -105 0
-81 -102 0
-82 -105 0
-81 -105 0
-82 -101 0
-85 -102 0
-83 -104 0
-84 -103 0
-85 -109 0
-85 -107 0
-84 -110 0
-83 -109 0
-83 -106 0
-82 -106 0
-83 -108 0
-82 -109 0
-81 -110 0
-81 -108 0
-82 -108 0
-84 -106 0
-83 -112 0
-83 -111 0
-84 -113 0
-85 -113 0
-85 -115 0
-81 -114 0
-82 -111 0
-85 -114 0
-82 -114 0
-83 -115 0
-83 -113 0
-83 -114 0
-85 -123 0
-85 -124 0
-85 -121 0
-83 -124 0
-82 -121 0
-84 -125 0
-84 -124 0
-83 -125 0
-83 -122 0
-82 -122 0
-83 -123 0
-81 -124 0
-85 -131 0
-81 -133 0
-83 -135 0
-81 -132 0
-82 -133 0
-83 -132 0
-85 -133 0
-81 -135 0
-81 -134 0
-84 -132 0
-85 -134 0
-85 -132 0
-81 -157 0
-84 -158 0
-84 -156 0
-82 -157 0
-81 -159 0
-85 -159 0
-85 -156 0
-83 -156 0
-81 -156 0
-84 -160 0
-82 -159 0
-83 -157 0
-85 -171 0
-82 -174 0
-83 -173 0
-83 -171 0
-84 -171 0
-82 -175 0
-84 -175 0
-85 -174 0
-81 -173 0
-85 -173 0
-83 -172 0
-84 -172 0
-88 -104 0
-89 -103 0
-89 -102 0
-90 -102 0
-90 -103 0
-87 -104 0
-87 -102 0
-88 -102 0
-89 -101 0
-90 -104 0
-90 -105 0
-86 -103 0
-90 -115 0
-87 -114 0
-88 -111 0
-86 -111 0
-88 -112 0
-86 -112 0
-87 -112 0
-89 -112 0
-89 -115 0
-88 -113 0
-87 -111 0
-89 -114 0
-88 -121 0
-86 -123 0
-86 -122 0
-89 -124 0
-89 -123 0
-89 -125 0
-90 -121 0
-87 -125 0
-88 -122 0
-88 -124 0
-88 -125 0
-88 -123 0
-87 -140 0
-86 -136 0
-87 -138 0
-88 -137 0
-90 -138 0
-89 -139 0
-90 -136 0
-89 -140 0
-90 -139 0
-90 -137 0
-86 -140 0
-87 -139 0
-88 -166 0
-90 -169 0
-88 -170 0
-90 -170 0
-86 -168 0
-86 -169 0
-88 -169 0
-89 -170 0
-87 -170 0
-87 -167 0
-89 -167 0
-89 -169 0
-86 -173 0
-86 -174 0
-87 -175 0
-89 -175 0
-89 -171 0
-87 -173 0
-86 -175 0
-88 -174 0
-87 -174 0
-89 -172 0
-90 -171 0
-88 -175 0
-92 -96 0
-91 -100 0
-95 -97 0
-93 -100 0
-93 -99 0
-94 -99 0
-95 -99 0
-93 -97 0
-91 -99 0
-91 -97 0
-93 -96 0
-92 -99 0
-93 -110 0
-91 -110 0
-93 -107 0
-92 -109 0
-93 -108 0
-95 -110 0
-95 -109 0
-92 -110 0
-95 -107 0
-92 -106 0
-91 -109 0
-91 -106 0
-91 -112 0
-94 -111 0
-93 -111 0
-92 -112 0
-95 -114 0
-93 -113 0
-94 -113 0
-94 -114 0
-91 -115 0
-92 -114 0
-91 -111 0
-94 -112 0
-94 -131 0
-91 -131 0
-94 -133 0
-93 -133 0
-95 -132 0
-95 -135 0
-92 -133 0
-92 -135 0
-94 -135 0
-93 -135 0
-94 -132 0
-93 -132 0
-91 -136 0
-94 -140 0
-95 -137 0
-91 -139 0
-93 -139 0
-93 -136 0
-91 -138 0
-92 -136 0
-95 -136 0
-94 -137 0
-93 -138 0
-91 -137 0
-94 -168 0
-94 -166 0
-95 -169 0
-95 -166 0
-93 -166 0
-91 -168 0
-92 -166 0
-91 -170 0
-92 -168 0
-93 -170 0
-91 -166 0
-93 -167 0
-102 -114 0
-104 -115 0
-105 -111 0
-101 -112 0
-104 -113 0
-105 -115 0
-102 -113 0
-103 -115 0
-104 -114 0
-103 -112 0
-103 -114 0
-102 -111 0
-104 -134 0
-105 -131 0
-105 -134 0
-101 -131 0
-101 -135 0
-101 -134 0
-102 -134 0
-104 -132 0
-102 -133 0
-102 -135 0
-104 -135 0
-104 -133 0
-104 -152 0
-101 -152 0
-104 -154 0
-102 -152 0
-101 -153 0
-103 -153 0
-103 -152 0
-105 -155 0
-103 -151 0
-103 -155 0
-101 -154 0
-102 -154 0
-101 -159 0
-104 -156 0
-102 -160 0
-105 -160 0
-102 -156 0
-102 -159 0
-105 -157 0
-103 -159 0
-104 -159 0
-103 -158 0
-101 -157 0
-102 -157 0
-108 -116 0
-110 -116 0
-109 -119 0
-109 -118 0
-107 -119 0
-109 -117 0
-107 -117 0
-109 -116 0
-107 -116 0
-110 -120 0
-106 -118 0
-110 -119 0
-110 -125 0
-110 -124 0
-106 -122 0
-110 -122 0
-108 -125 0
-106 -121 0
-108 -123 0
-109 -121 0
-108 -124 0
-106 -123 0
-109 -124 0
-107 -124 0
-109 -132 0
-110 -135 0
-108 -131 0
-106 -135 0
-106 -132 0
-106 -134 0
-108 -135 0
-107 -135 0
-107 -131 0
-110 -132 0
-107 -132 0
-109 -134 0
-109 -136 0
-108 -140 0
-106 -137 0
-110 -140 0
-107 -136 0
-108 -138 0
-108 -136 0
-108 -139 0
-109 -138 0
-110 -139 0
-106 -136 0
-110 -137 0
-109 -143 0
-106 -141 0
-110 -141 0
-106 -142 0
-109 -141 0
-107 -144 0
-110 -143 0
-110 -144 0
-107 -145 0
-109 -142 0
-110 -142 0
-108 -144 0
-107 -158 0
-110 -158 0
-109 -160 0
-109 -158 0
-106 -160 0
-109 -159 0
-107 -156 0
-110 -159 0
-108 -159 0
-108 -160 0
-110 -157 0
-107 -160 0
-114 -125 0
-113 -124 0
-114 -123 0
-115 -122 0
-115 -121 0
-112 -124 0
-111 -121 0
-115 -124 0
-113 -125 0
-112 -121 0
-115 -125 0
-114 -122 0
-113 -132 0
-115 -131 0
-114 -131 0
-111 -134 0
-115 -133 0
-112 -132 0
-113 -131 0
-115 -132 0
-114 -134 0
-113 -135 0
-112 -133 0
-114 -133 0
-115 -136 0
-113 -137 0
-112 -139 0
-111 -140 0
-111 -137 0
-113 -138 0
-111 -136 0
-113 -139 0
-112 -137 0
-112 -138 0
-113 -136 0
-115 -139 0
-112 -173 0
-113 -173 0
-111 -171 0
-115 -174 0
-115 -173 0
-114 -172 0
-111 -175 0
-115 -175 0
-114 -171 0
-113 -172 0
-114 -175 0
-114 -174 0
-119 -129 0
-119 -130 0
-116 -129 0
-120 -130 0
-117 -126 0
-117 -127 0
-118 -127 0
-118 -130 0
-120 -126 0
-118 -129 0
-118 -126 0
-120 -129 0
-116 -147 0
-120 -146 0
-119 -146 0
-119 -150 0
-117 -146 0
-118 -148 0
-118 -147 0
-118 -149 0
-119 -147 0
-116 -146 0
-117 -147 0
-118 -146 0
-120 -162 0
-120 -165 0
-120 -164 0
-119 -165 0
-118 -163 0
-117 -164 0
-116 -165 0
-116 -163 0
-119 -162 0
-118 -162 0
-120 -163 0
-117 -161 0
-124 -134 0
-124 -135 0
-121 -135 0
-122 -133 0
-121 -134 0
-121 -133 0
-124 -131 0
-121 -132 0
-123 -132 0
-124 -132 0
-122 -135 0
-123 -133 0
-121 -155 0
-125 -151 0
-125 -155 0
-124 -155 0
-124 -152 0
-122 -155 0
-121 -152 0
-123 -152 0
-122 -151 0
-121 -153 0
-123 -154 0
-124 -154 0
-125 -160 0
-123 -156 0
-123 -160 0
-124 -158 0
-124 -159 0
-124 -157 0
-125 -157 0
-121 -160 0
-121 -157 0
-122 -157 0
-124 -160 0
-124 -156 0
-128 -141 0
-130 -145 0
-127 -143 0
-127 -144 0
-126 -145 0
-130 -144 0
-130 -143 0
-126 -142 0
-127 -141 0
-130 -142 0
-129 -144 0
-126 -141 0
-129 -148 0
-130 -150 0
-129 -147 0
-128 -148 0
-126 -149 0
-130 -147 0
-130 -148 0
-127 -150 0
-128 -149 0
-126 -147 0
-130 -149 0
-129 -150 0
-127 -151 0
-126 -155 0
-127 -155 0
-126 -153 0
-128 -152 0
-128 -155 0
-126 -151 0
-130 -151 0
-130 -152 0
-127 -152 0
-126 -152 0
-129 -154 0
-129 -158 0
-127 -159 0
-127 -158 0
-129 -159 0
-130 -159 0
-129 -160 0
-126 -159 0
-127 -156 0
-127 -157 0
-130 -158 0
-126 -157 0
-129 -157 0
-127 -165 0
-130 -163 0
-128 -163 0
-126 -162 0
-126 -161 0
-126 -163 0
-129 -162 0
-128 -164 0
-130 -164 0
-127 -162 0
-129 -164 0
-130 -165 0
-126 -167 0
-127 -169 0
-130 -170 0
-130 -166 0
-126 -166 0
-129 -166 0
-127 -166 0
-130 -169 0
-127 -168 0
-128 -167 0
-127 -170 0
-129 -169 0
-130 -171 0
-130 -174 0
-130 -173 0
-127 -172 0
-129 -175 0
-127 -173 0
-128 -175 0
-130 -175 0
-129 -173 0
-127 -171 0
-127 -174 0
-126 -172 0
-131 -148 0
-132 -146 0
-134 -146 0
-135 -147 0
-132 -147 0
-135 -149 0
-131 -149 0
-133 -147 0
-134 -149 0
-135 -146 0
-132 -149 0
-133 -150 0
-133 -170 0
-134 -170 0
-132 -167 0
-132 -168 0
-131 -168 0
-135 -167 0
-135 -170 0
-133 -166 0
-131 -169 0
-131 -166 0
-134 -166 0
-135 -168 0
-140 -151 0
-136 -155 0
-139 -153 0
-139 -152 0
-137 -154 0
-138 -154 0
-136 -151 0
-138 -152 0
-137 -152 0
-139 -151 0
-136 -154 0
-139 -154 0
-136 -156 0
-138 -160 0
-140 -157 0
-139 -156 0
-140 -158 0
-137 -159 0
-139 -160 0
-140 -156 0
-136 -160 0
-140 -159 0
-138 -158 0
-137 -158 0
-136 -161 0
-139 -165 0
-136 -165 0
-137 -162 0
-138 -162 0
-140 -165 0
-136 -164 0
-139 -161 0
-137 -161 0
-139 -163 0
-138 -164 0
-137 -164 0
-141 -149 0
-143 -148 0
-145 -150 0
-144 -146 0
-143 -146 0
-143 -150 0
-142 -149 0
-141 -146 0
-145 -146 0
-145 -147 0
-142 -148 0
-142 -146 0
-144 -169 0
-144 -170 0
-142 -166 0
-141 -168 0
-145 -170 0
-145 -166 0
-142 -168 0
-145 -168 0
-141 -170 0
-145 -169 0
-143 -166 0
-143 -167 0
-150 -160 0
-147 -157 0
-150 -158 0
-149 -160 0
-146 -156 0
-150 -156 0
-147 -159 0
-146 -159 0
-146 -158 0
-150 -159 0
-146 -160 0
-148 -160 0
-153 -157 0
-154 -158 0
-154 -159 0
-154 -156 0
-154 -160 0
-155 -157 0
-151 -160 0
-155 -159 0
-152 -157 0
-154 -157 0
-151 -157 0
-153 -159 0
-151 -171 0
-155 -175 0
-154 -175 0
-153 -174 0
-154 -174 0
-155 -173 0
-153 -173 0
-154 -171 0
-153 -172 0
-154 -173 0
-152 -175 0
-155 -172 0
-164 -174 0
-163 -173 0
-161 -173 0
-163 -171 0
-165 -171 0
-161 -172 0
-162 -175 0
-163 -172 0
-164 -175 0
-162 -172 0
-165 -174 0
-165 -172 0
-170 -173 0
-167 -174 0
-167 -175 0
-167 -172 0
-168 -171 0
-166 -173 0
-168 -173 0
-166 -174 0
-167 -173 0
-168 -175 0
-168 -172 0
-167 -171 0
